NAME : OCPPP2.gtsp.140007.tour
COMMENT : Length = 140007
COMMENT : Found by GLKH [Keld Helsgaun] Mon Jul 25 23:51:37 2022
TYPE : TOUR
DIMENSION : 35
TOUR_SECTION
2
16
17
66
20
5
57
14
38
35
53
40
43
69
50
47
31
52
27
24
21
45
41
9
64
4
67
12
7
56
33
60
30
25
61
-1
EOF
